(declare-fun _for_it_16 () Int)
(declare-fun kfdia () Int)
(declare-fun kidia () Int)
(declare-fun klev () Int)
(declare-fun ptare_var_0 () Int)
(declare-fun rtt_var_1 () Int)

(assert (and
  (and
    (<= kidia (+ kfdia (- 1)))
    (<= 1 (+ klev (- 1)))
    (<= (+ _for_it_16 1) (+ klev (- 1)))
    (<= 0 _for_it_16)
  )
  (forall ((_for_it_17_0 Int) (_for_it_17_1 Int))
    (or
      (not (<= (+ kidia (- 1)) _for_it_17_1))
      (not (<= _for_it_17_0 (+ kfdia (- 1))))
      (not (<= (+ kidia (- 1)) _for_it_17_0))
      (not (<= _for_it_17_1 (+ kfdia (- 1))))
    )
  )
  (forall ((_for_it_17_0 Int) (_for_it_17_1 Int))
    (or
      (not (<= rtt_var_1 ptare_var_0))
      (not (<= _for_it_17_1 (+ kfdia (- 1))))
      (not (<= (+ kidia (- 1)) _for_it_17_1))
      (not (<= _for_it_17_0 (+ kfdia (- 1))))
      (not (<= (+ kidia (- 1)) _for_it_17_0))
    )
  )
  (forall ((_for_it_17_0 Int) (_for_it_17_1 Int))
    (or
      (<= rtt_var_1 ptare_var_0)
      (not (<= _for_it_17_1 (+ kfdia (- 1))))
      (not (<= (+ kidia (- 1)) _for_it_17_1))
      (not (<= _for_it_17_0 (+ kfdia (- 1))))
      (not (<= (+ kidia (- 1)) _for_it_17_0))
    )
  )
  (forall ((_for_it_17_0 Int) (_for_it_17_1 Int))
    (or
      (not (= _for_it_17_0 _for_it_17_1))
      (not (= _for_it_16 (+ _for_it_16 1)))
      (not (<= _for_it_17_1 (+ kfdia (- 1))))
      (not (<= (+ kidia (- 1)) _for_it_17_1))
      (not (<= _for_it_17_0 (+ kfdia (- 1))))
      (not (<= (+ kidia (- 1)) _for_it_17_0))
    )
  )
))

(check-sat)